; benchmark generated from python API
(set-info :status unknown)
(declare-datatypes ((RealState 0)) (((RMk1 (rval1 Real)) (RMk2 (rval2 Real)))))
 (declare-fun yuscore2dollarskuscore46 () Real)
(declare-fun t25uscore0dollarskuscore1 () Real)
(declare-fun xuscore2dollarskuscore38 () Real)
(declare-fun stuscore2dollarskuscore46 () Real)
(assert
 (let (($x89 (exists ((ts25uscore1_st RealState) (val!89 Real) )(let (($x217 (<= (+ t25uscore0dollarskuscore1 yuscore2dollarskuscore46) 12.0)))
 (let (($x184 (<= yuscore2dollarskuscore46 (+ 10.0 xuscore2dollarskuscore38))))
 (let (($x135 (>= yuscore2dollarskuscore46 (- 5.0 (* 2.0 xuscore2dollarskuscore38)))))
 (let (($x16 (<= yuscore2dollarskuscore46 12.0)))
 (let (($x11 (>= yuscore2dollarskuscore46 1.0)))
 (let (($x18 (= stuscore2dollarskuscore46 0.0)))
 (let (($x151 (> yuscore2dollarskuscore46 10.0)))
 (let (($x130 (>= t25uscore0dollarskuscore1 0.0)))
 (let (($x211 (<= (+ (rval2 ts25uscore1_st) yuscore2dollarskuscore46) 10.0)))
 (let (($x169 (and (<= 0.0 (rval2 ts25uscore1_st)) (<= (rval2 ts25uscore1_st) t25uscore0dollarskuscore1))))
 (let (($x26 (and (and (and (and (and (=> $x169 $x211) $x130) $x151) $x18) $x11) $x16)))
 (let (($x94 (not (= ts25uscore1_st (RMk1 val!89)))))
 (and $x94 (=> (and (and $x26 $x135) $x184) $x217)))))))))))))))
 ))
 (not $x89)))
(check-sat)
